
(set-info :smt-lib-version 2.6)
(set-logic QF_SLIA)
(set-info :source |
Generated by: Denghang Hu, Rongcheng Li, Zhilin Wu, Philipp Rummer, and Oliver Markgraf,
Generated on: 20240411,
Generator: ReDoSHunter4SymExec,
Application: ReDoS attack detection,
Description: The dataset is generated by the tool ReDoSHunter4SymExec
 at https://github.com/SuperMaxine/ReDoSHunter4SymExec, to test whether attacks for a regular expression exist.  
Target solver: Ostrich, Z3str3, CVC5
|)
(set-info :license "https://creativecommons.org/licenses/by/4.0/")
(set-info :category "industrial")
(set-info :status sat)

(declare-const result String)
(declare-const attack String)
(declare-const prefix RegLan)
(declare-const infix RegLan)
(declare-const postfix RegLan)
(declare-const postfixs String)

(assert (str.in_re attack (re.++ prefix ((_ re.loop 5000 5000) infix) postfix)))
(assert (= prefix 
     (re.++  (re.++  (str.to_re "\u{3b}") (re.++ (re.*  (str.to_re "\u{20}") ) (re.++  (str.to_re "\u{76}") (re.++  (str.to_re "\u{38}") (re.++  (str.to_re "\u{39}")  (str.to_re "\u{5f}")))))) (re.+  (re.union  (str.to_re "\u{5c}\u{2f}")  (str.to_re "\u{3b}")) ))
))
(assert (= infix 
         (re.++  (re.++ (re.+  (re.union  (str.to_re "\u{5c}\u{2f}")  (str.to_re "\u{3b}")) ) (re.+  (re.union  (str.to_re "\u{5c}\u{2f}")  (str.to_re "\u{3b}")) )) (re.++  (str.to_re "\u{26}") (re.++  (re.++ (re.+  (re.union  (str.to_re "\u{5c}\u{2f}")  (str.to_re "\u{3b}")) ) (re.++  (re.+  (re.union  (str.to_re "\u{5c}\u{2f}")  (str.to_re "\u{3b}")) ))) (re.++  (str.to_re "\u{26}") (re.+ re.allchar )))))
))
(assert (= postfix 
        (re.inter  (re.inter  (re.++  (str.to_re "\u{00}") (re.++  (str.to_re "\u{00}") (re.*  (re.union (re.union (str.to_re "\u{09}") (str.to_re "\u{0a}") (str.to_re "\u{0d}") (str.to_re " ")) (re.inter re.allchar (re.comp (re.union (str.to_re "\u{09}") (str.to_re "\u{0a}") (str.to_re "\u{0d}") (str.to_re " "))))) ))) (re.comp (re.+  (re.union  (str.to_re "\u{5c}\u{2f}")  (str.to_re "\u{3b}")) )))  (re.inter  (re.++  (str.to_re "\u{00}") (re.++  (str.to_re "\u{00}") (re.*  (re.union (re.union (str.to_re "\u{09}") (str.to_re "\u{0a}") (str.to_re "\u{0d}") (str.to_re " ")) (re.inter re.allchar (re.comp (re.union (str.to_re "\u{09}") (str.to_re "\u{0a}") (str.to_re "\u{0d}") (str.to_re " "))))) ))) (re.comp  (re.++ (re.+  (re.union  (str.to_re "\u{5c}\u{2f}")  (str.to_re "\u{3b}")) )  (re.++  (str.to_re "\u{20}") (re.++  (str.to_re "\u{42}") (re.++  (str.to_re "\u{75}") (re.++  (str.to_re "\u{69}") (re.++  (str.to_re "\u{6c}") (re.++  (str.to_re "\u{64}")  (str.to_re "\u{5c}\u{2f}")))))))))) )
))
(assert (str.in_re postfixs postfix))
(assert (>= (str.len postfixs) 1))
(assert (= result (str.++ attack postfixs)))
(check-sat)
(get-model)
(exit)